data;

set A := 380 18 72 670 62 718 482 906 132 58 664 122 682 388 698 230 10 218 14 730 778 368 516 816 588 354 40 350 766 600 770 364 712 290 448 800 720 534 838 198 184 896 106 922 486 572 488 724 168 274 524 824 606 34 716 994 898 790 748 32;
param T := 15000;

end;
